
Welcome to IBM(R) ILOG(R) CPLEX(R) Interactive Optimizer 22.1.1.0
  with Simplex, Mixed Integer & Barrier Optimizers
5725-A06 5725-A29 5724-Y48 5724-Y49 5724-Y54 5724-Y55 5655-Y21
Copyright IBM Corp. 1988, 2022.  All Rights Reserved.

Type 'help' for a list of available commands.
Type 'help' followed by a command name for more
information on commands.

CPLEX> Selected objective sense:  MINIMIZE
Selected objective  name:  00000000
Selected RHS        name:  RHS1
Selected bound      name:  BOUND
Problem 'ee.mps' read.
Read time = 0.03 sec. (3.17 ticks)
CPLEX> New value for time limit in seconds: 7200
CPLEX> New value for parallel optimization mode: -1
CPLEX> New value for default parallel thread count: 40
CPLEX> New value for mixed integer optimality gap tolerance: 1e-13
CPLEX> Version identifier: 22.1.1.0 | 2022-11-28 | 9160aff4d
CPXPARAM_Threads                                 40
CPXPARAM_Parallel                                -1
CPXPARAM_TimeLimit                               7200
CPXPARAM_MIP_Tolerances_MIPGap                   1e-13
Found incumbent of value 0.000000 after 0.00 sec. (0.31 ticks)
Tried aggregator 2 times.
MIP Presolve eliminated 183 rows and 2745 columns.
MIP Presolve modified 6090 coefficients.
Aggregator did 713 substitutions.
Reduced MIP has 3636 rows, 7840 columns, and 28953 nonzeros.
Reduced MIP has 7840 binaries, 0 generals, 0 SOSs, and 0 indicators.
Presolve time = 0.07 sec. (69.13 ticks)
Probing time = 0.03 sec. (5.35 ticks)
Tried aggregator 1 time.
Detecting symmetries...
Reduced MIP has 3636 rows, 7840 columns, and 28953 nonzeros.
Reduced MIP has 7840 binaries, 0 generals, 0 SOSs, and 0 indicators.
Presolve time = 0.02 sec. (22.10 ticks)
Probing time = 0.02 sec. (5.13 ticks)
Clique table members: 18788.
MIP emphasis: balance optimality and feasibility.
MIP search method: dynamic search.
Parallel mode: opportunistic, using up to 40 threads.
Root relaxation solution time = 0.16 sec. (138.70 ticks)

        Nodes                                         Cuts/
   Node  Left     Objective  IInf  Best Integer    Best Bound    ItCnt     Gap

*     0+    0                            0.0000  -1.54000e+13              --- 
*     0+    0                      -4.80000e+12  -1.54000e+13           220.83%
*     0+    0                      -6.00000e+12  -1.54000e+13           156.67%
      0     0  -1.53900e+13    96  -6.00000e+12  -1.53900e+13     2647  156.50%
*     0+    0                      -1.53900e+13  -1.53900e+13             0.00%
      0     0  -1.53900e+13   117  -1.53900e+13      Cuts: 71     3300    0.00%
*     0+    0                      -1.53900e+13  -1.53900e+13             0.00%
      0     0  -1.53900e+13   187  -1.53900e+13      Cuts: 67     4485    0.00%

Repeating presolve.
Tried aggregator 3 times.
MIP Presolve eliminated 2453 rows and 5783 columns.
MIP Presolve added 26 rows and 0 columns.
MIP Presolve modified 97 coefficients.
Aggregator did 350 substitutions.
Reduced MIP has 859 rows, 1678 columns, and 5876 nonzeros.
Reduced MIP has 1678 binaries, 0 generals, 0 SOSs, and 0 indicators.
Presolve time = 0.02 sec. (25.21 ticks)
Probing fixed 21 vars, tightened 0 bounds.
Probing time = 0.02 sec. (21.47 ticks)
Tried aggregator 2 times.
MIP Presolve eliminated 13 rows and 51 columns.
MIP Presolve modified 18 coefficients.
Aggregator did 12 substitutions.
Reduced MIP has 834 rows, 1615 columns, and 5647 nonzeros.
Reduced MIP has 1615 binaries, 0 generals, 0 SOSs, and 0 indicators.
Presolve time = 0.01 sec. (8.08 ticks)
Probing time = 0.01 sec. (14.65 ticks)
Tried aggregator 2 times.
Detecting symmetries...
MIP Presolve eliminated 4 rows and 10 columns.
MIP Presolve modified 3 coefficients.
Aggregator did 5 substitutions.
Reduced MIP has 825 rows, 1600 columns, and 5596 nonzeros.
Reduced MIP has 1600 binaries, 0 generals, 0 SOSs, and 0 indicators.
Presolve time = 0.01 sec. (7.48 ticks)
Represolve time = 0.10 sec. (94.22 ticks)
Probing time = 0.02 sec. (19.20 ticks)
Clique table members: 3823.
MIP emphasis: balance optimality and feasibility.
MIP search method: dynamic search.
Parallel mode: opportunistic, using up to 40 threads.
Root relaxation solution time = 0.01 sec. (9.65 ticks)

        Nodes                                         Cuts/
   Node  Left     Objective  IInf  Best Integer    Best Bound    ItCnt     Gap

*     0+    0                      -1.53900e+13  -1.53900e+13             0.00%
      0     0  -1.53900e+13    19  -1.53900e+13  -1.53900e+13     5082    0.00%
      0     0  -1.53900e+13   108  -1.53900e+13      Cuts: 48     5219    0.00%
      0     0  -1.53900e+13    55  -1.53900e+13     Cuts: 109     5305    0.00%
      0     0  -1.53900e+13    49  -1.53900e+13      Cuts: 38     5329    0.00%
      0     0  -1.53900e+13    57  -1.53900e+13      Cuts: 22     5347    0.00%
*     0+    0                      -1.53900e+13  -1.53900e+13             0.00%
      0     2  -1.53900e+13    48  -1.53900e+13  -1.53900e+13     5347    0.00%
Elapsed time = 1.53 sec. (1079.53 ticks, tree = 0.02 MB, solutions = 6)

GUB cover cuts applied:  1
Clique cuts applied:  58
Cover cuts applied:  47
Mixed integer rounding cuts applied:  8
Zero-half cuts applied:  25
Lift and project cuts applied:  8
Gomory fractional cuts applied:  17

Root node processing (before b&c):
  Real time             =    1.32 sec. (1079.49 ticks)
Parallel b&c, 40 threads:
  Real time             =    0.36 sec. (15.33 ticks)
  Sync time (average)   =    0.16 sec.
  Wait time (average)   =    0.00 sec.
                          ------------
Total (root+branch&cut) =    1.67 sec. (1094.82 ticks)

Solution pool: 6 solutions saved.

MIP - Integer optimal solution:  Objective = -1.5389999589e+13
Solution time =    1.71 sec.  Iterations = 6297  Nodes = 89
Deterministic time = 1094.86 ticks  (640.64 ticks/sec)

CPLEX> Solution 'p7' written to file 'ee.sol'.
CPLEX> 